coords = array2d(1..55, 1..2, [614, 382, 702, 999, 267, 257, 574, 573, 199,
    184, 408, 149, 548, 475, 433, 273, 207, 512, 759, 159, 214, 84,
    628, 170, 938, 69, 752, 308, 862, 967, 31, 456, 215, 562, 467,
    163, 715, 903, 830, 731, 216, 856, 630, 182, 47, 68, 670, 93, 669,
    88, 232, 340, 339, 327, 154, 510, 303, 841, 156, 515, 119, 639,
    416, 579, 207, 947, 453, 156, 146, 146, 446, 558, 470, 642, 709,
    160, 322, 23, 790, 123, 295, 688, 964, 496, 198, 897, 682, 784,
    964, 322, 631, 209, 153, 887, 221, 708, 969, 170, 48, 884, 685,
    182, 848, 186, 766, 324, 680, 55, 528, 398]);

n = 55;

